156 81 17 58 165 146 157 95 150 20 6 178 161 1 8 198 128 89 197 194 71 18 163 25 47 52 56 175 144 24 86 112 114 113 133 166 192 196 190 176 174 65 104 37 38 14 83 110 138 32 78 50 5 2 153 122 42 77 127 189 35 97 12 185 126 43 193 62 149 155 131 57 151 28 99 115 63 172 69 139 109 120 181 85 51 41 22 168 54 140 116 34 154 3 123 187 68 4 191 70 164 39 10 80 119 98 182 94 27 76 33 158 152 148 60 66 46 9 101 29 91 159 162 118 177 53 103 26 23 129 179 170 13 183 106 90 40 169 184 186 147 130 141 59 73 21 107 0 199 180 111 188 7 117 44 102 74 132 67 11 64 105 15 142 93 16 88 137 96 143 135 121 171 75 195 173 31 49 82 36 84 61 87 136 79 108 48 100 30 92 72 45 160 55 134 145 167 125 124 19